c "984346.clq"
p edge 138 536
e 1 5
e 1 6
e 1 39
e 1 81
e 1 105
e 1 120
e 2 5
e 2 8
e 3 5
e 3 6
e 3 7
e 3 8
e 3 9
e 3 10
e 3 14
e 3 15
e 3 18
e 3 19
e 3 21
e 3 23
e 3 30
e 3 32
e 3 33
e 3 36
e 3 37
e 3 42
e 3 43
e 3 48
e 3 62
e 3 73
e 3 90
e 3 92
e 3 96
e 3 104
e 3 118
e 3 122
e 3 124
e 3 135
e 4 5
e 4 6
e 4 7
e 4 8
e 4 10
e 4 13
e 4 15
e 4 17
e 4 26
e 4 29
e 4 32
e 4 33
e 4 49
e 4 53
e 4 54
e 4 56
e 4 74
e 4 76
e 4 82
e 4 89
e 4 94
e 4 101
e 4 131
e 5 6
e 5 7
e 5 9
e 5 12
e 5 13
e 5 14
e 5 15
e 5 16
e 5 28
e 5 34
e 5 36
e 5 43
e 5 57
e 5 71
e 5 77
e 5 84
e 5 109
e 5 113
e 5 115
e 5 124
e 5 129
e 5 137
e 6 7
e 6 8
e 6 10
e 6 11
e 6 13
e 6 16
e 6 17
e 6 19
e 6 20
e 6 28
e 6 30
e 6 52
e 6 58
e 6 63
e 6 71
e 6 77
e 6 97
e 6 99
e 6 107
e 6 109
e 6 113
e 6 129
e 7 9
e 7 10
e 7 11
e 7 21
e 7 23
e 7 25
e 7 76
e 8 9
e 8 11
e 8 12
e 8 16
e 8 18
e 8 19
e 8 22
e 8 29
e 8 35
e 8 38
e 8 39
e 8 42
e 8 47
e 8 54
e 8 57
e 8 60
e 8 63
e 8 65
e 8 70
e 8 84
e 8 88
e 8 91
e 8 94
e 8 106
e 8 108
e 8 112
e 8 114
e 8 132
e 9 17
e 9 18
e 9 23
e 9 28
e 9 37
e 9 39
e 9 41
e 9 44
e 9 46
e 9 56
e 9 71
e 9 77
e 9 78
e 9 83
e 9 85
e 9 99
e 9 134
e 10 11
e 10 12
e 10 14
e 10 15
e 10 16
e 10 21
e 10 23
e 10 27
e 10 30
e 10 31
e 10 33
e 10 34
e 10 37
e 10 40
e 10 45
e 10 47
e 10 50
e 10 58
e 10 61
e 10 62
e 10 63
e 10 66
e 10 73
e 10 74
e 10 83
e 10 89
e 10 103
e 10 133
e 11 12
e 11 14
e 11 19
e 11 22
e 11 25
e 11 41
e 11 51
e 11 64
e 11 84
e 11 94
e 11 103
e 11 113
e 11 116
e 11 121
e 12 13
e 12 36
e 12 44
e 12 45
e 12 48
e 12 60
e 12 79
e 12 105
e 12 110
e 12 115
e 13 18
e 13 20
e 13 31
e 13 45
e 13 55
e 13 59
e 13 64
e 13 79
e 13 92
e 13 103
e 13 108
e 13 118
e 13 119
e 13 120
e 13 123
e 13 134
e 13 136
e 14 24
e 14 29
e 14 31
e 14 43
e 14 51
e 14 110
e 14 112
e 14 120
e 14 125
e 15 20
e 15 21
e 15 22
e 15 27
e 15 51
e 15 53
e 15 80
e 15 82
e 15 86
e 15 93
e 15 126
e 16 17
e 16 26
e 16 27
e 16 30
e 16 31
e 16 49
e 16 50
e 16 61
e 16 64
e 16 67
e 16 71
e 16 72
e 16 81
e 16 85
e 16 87
e 16 96
e 16 116
e 16 131
e 17 25
e 17 26
e 17 34
e 17 35
e 17 38
e 17 50
e 17 52
e 17 59
e 17 80
e 17 91
e 17 116
e 17 123
e 18 20
e 18 24
e 18 52
e 18 54
e 18 72
e 18 129
e 20 24
e 20 28
e 20 34
e 20 38
e 20 81
e 20 82
e 20 88
e 20 102
e 20 106
e 20 119
e 20 129
e 20 137
e 20 138
e 21 22
e 22 26
e 22 29
e 22 32
e 22 39
e 22 40
e 22 45
e 22 46
e 22 48
e 23 24
e 23 25
e 23 35
e 23 42
e 23 51
e 23 65
e 23 73
e 23 111
e 23 119
e 23 122
e 24 36
e 24 62
e 24 96
e 25 130
e 26 27
e 26 33
e 26 40
e 26 41
e 26 56
e 26 57
e 26 97
e 26 104
e 26 109
e 27 32
e 27 55
e 27 61
e 27 68
e 27 77
e 27 86
e 27 102
e 28 79
e 28 95
e 28 124
e 28 137
e 29 57
e 30 38
e 30 55
e 30 68
e 30 93
e 31 47
e 31 58
e 31 66
e 31 68
e 31 122
e 32 40
e 32 48
e 32 98
e 32 100
e 32 107
e 32 118
e 33 60
e 33 69
e 33 70
e 33 97
e 33 117
e 33 126
e 33 138
e 34 35
e 34 61
e 34 65
e 34 73
e 34 75
e 34 76
e 34 87
e 34 90
e 34 92
e 35 37
e 35 42
e 35 46
e 35 62
e 35 66
e 35 88
e 35 92
e 35 93
e 35 95
e 35 110
e 35 136
e 36 52
e 36 56
e 36 65
e 36 98
e 36 115
e 36 130
e 36 135
e 37 60
e 37 74
e 37 78
e 37 85
e 37 131
e 38 43
e 38 50
e 38 54
e 38 91
e 39 41
e 39 44
e 39 46
e 39 55
e 39 59
e 39 67
e 39 69
e 39 107
e 39 126
e 39 138
e 40 44
e 40 80
e 40 83
e 40 106
e 40 113
e 41 49
e 41 95
e 41 125
e 42 53
e 42 80
e 42 102
e 43 72
e 44 47
e 44 53
e 44 117
e 45 49
e 45 104
e 45 125
e 45 133
e 46 58
e 46 70
e 46 93
e 47 69
e 47 82
e 47 101
e 47 125
e 48 74
e 48 89
e 48 116
e 49 63
e 49 76
e 49 108
e 49 111
e 49 136
e 51 96
e 52 98
e 52 120
e 53 75
e 53 79
e 53 105
e 53 106
e 53 123
e 54 59
e 54 117
e 55 102
e 56 100
e 57 78
e 57 132
e 59 72
e 59 94
e 59 110
e 59 112
e 61 64
e 61 67
e 62 66
e 62 67
e 62 75
e 62 90
e 62 95
e 62 98
e 62 114
e 62 136
e 65 87
e 66 85
e 66 101
e 66 108
e 67 68
e 67 69
e 67 103
e 67 118
e 67 127
e 67 130
e 67 135
e 68 75
e 68 117
e 69 70
e 69 81
e 69 97
e 69 105
e 72 91
e 72 111
e 73 100
e 74 88
e 74 89
e 74 104
e 74 123
e 75 99
e 75 127
e 75 128
e 77 78
e 77 83
e 77 84
e 77 86
e 77 87
e 78 124
e 78 128
e 79 114
e 79 127
e 82 86
e 83 112
e 84 90
e 84 99
e 85 100
e 85 107
e 85 131
e 86 132
e 88 115
e 89 133
e 89 138
e 91 121
e 95 132
e 96 111
e 98 101
e 103 109
e 105 133
e 105 134
e 106 119
e 106 135
e 108 114
e 110 121
e 112 128
e 113 130
e 115 127
e 115 128
e 119 122
e 119 137
e 120 121
e 124 126
e 125 134
